
Gurobi 12.0.2 (win64) logging started Sat Nov  1 19:18:23 2025

Set parameter LogFile to value "resultados DATA_1_n30m05b2d1\instancia_7_log.txt"
Set parameter TimeLimit to value 360
Gurobi Optimizer version 12.0.2 build v12.0.2rc0 (win64 - Windows 10.0 (19045.2))

CPU model: Intel(R) Core(TM) i5-6300U CPU @ 2.40GHz, instruction set [SSE2|AVX|AVX2]
Thread count: 2 physical cores, 4 logical processors, using up to 4 threads

Non-default parameters:
TimeLimit  360

Optimize a model with 7301 rows, 12216 columns and 3263384 nonzeros
Model fingerprint: 0x609cf064
Variable types: 0 continuous, 12216 integer (12216 binary)
Coefficient statistics:
  Matrix range     [1e+00, 1e+00]
  Objective range  [1e-02, 5e-02]
  Bounds range     [1e+00, 1e+00]
  RHS range        [1e+00, 6e+01]
Found heuristic solution: objective 0.8233704
Presolve removed 219 rows and 5196 columns (presolve time = 5s)...
Presolve removed 219 rows and 5196 columns (presolve time = 10s)...
Presolve removed 219 rows and 5196 columns (presolve time = 15s)...
Presolve removed 219 rows and 5196 columns (presolve time = 20s)...
Presolve removed 219 rows and 5196 columns (presolve time = 25s)...
Presolve removed 219 rows and 5196 columns
Presolve time: 25.06s
Presolved: 7082 rows, 7020 columns, 1764377 nonzeros
Found heuristic solution: objective 0.4274444
Variable types: 0 continuous, 7020 integer (7020 binary)

Root simplex log...

Iteration    Objective       Primal Inf.    Dual Inf.      Time
       0    4.4846667e+00   1.679400e+04   0.000000e+00     26s
    4801    9.6494749e-01   3.112980e+04   0.000000e+00     30s
    8511    9.2832841e-01   7.275708e+03   0.000000e+00     35s
   11661    9.1667101e-01   3.734447e+04   0.000000e+00     40s
   15131    9.1003076e-01   7.395250e+03   0.000000e+00     45s
   18451    9.0748499e-01   4.548524e+02   0.000000e+00     50s
   21611    9.0675335e-01   1.678310e+03   0.000000e+00     55s
   24448    9.0693827e-01   0.000000e+00   2.636787e-03     60s
   24560    9.0693827e-01   0.000000e+00   0.000000e+00     61s

Root relaxation: objective 9.069383e-01, 24560 iterations, 35.04 seconds (42.39 work units)

    Nodes    |    Current Node    |     Objective Bounds      |     Work
 Expl Unexpl |  Obj  Depth IntInf | Incumbent    BestBd   Gap | It/Node Time

     0     0    0.90694    0  235    0.82337    0.90694  10.1%     -   62s
H    0     0                       0.8411481    0.90694  7.82%     -   62s
H    0     0                       0.8414815    0.90694  7.78%     -   62s
H    0     0                       0.8524815    0.90694  6.39%     -   62s
H    0     0                       0.8729630    0.90694  3.89%     -   62s
H    0     0                       0.8772963    0.90694  3.38%     -   62s
     0     0    0.90694    0  248    0.87730    0.90694  3.38%     -   77s
     0     0    0.90694    0  254    0.87730    0.90694  3.38%     -   93s
     0     0    0.90694    0   84    0.87730    0.90694  3.38%     -   97s
     0     0    0.90694    0  297    0.87730    0.90694  3.38%     -  110s
H    0     0                       0.8826667    0.90694  2.75%     -  111s
     0     0    0.90694    0   83    0.88267    0.90694  2.75%     -  129s
     0     0    0.90694    0   85    0.88267    0.90694  2.75%     -  131s
     0     0    0.90694    0   85    0.88267    0.90694  2.75%     -  151s
     0     0    0.90694    0  119    0.88267    0.90694  2.75%     -  171s
     0     0    0.90694    0  411    0.88267    0.90694  2.75%     -  198s
     0     0    0.90694    0   70    0.88267    0.90694  2.75%     -  212s
     0     0    0.90694    0  349    0.88267    0.90694  2.75%     -  225s
     0     0    0.90694    0   80    0.88267    0.90694  2.75%     -  229s
     0     0    0.90694    0   80    0.88267    0.90694  2.75%     -  313s
     0     2    0.90694    0   80    0.88267    0.90694  2.75%     -  341s

Cutting planes:
  Zero half: 5

Explored 1 nodes (68929 simplex iterations) in 360.07 seconds (435.37 work units)
Thread count was 4 (of 4 available processors)

Solution count 8: 0.882667 0.877296 0.872963 ... 0.427444

Time limit reached
Best objective 8.826666666667e-01, best bound 9.069382716049e-01, gap 2.7498%
